# Solution for model melting_srl_ilp
# Objective value = 3.2516575301355203e+01
Z_113_0_0 0
Z_113_0_1 1
Z_113_0_2 0
Z_113_0_3 0
Z_113_0_4 0
Z_724_11_0 0
Z_724_11_1 0
Z_724_11_2 0
Z_724_11_3 0
Z_724_11_4 1
Z_724_2_0 0
Z_724_2_1 0
Z_724_2_2 0
Z_724_2_3 0
Z_724_2_4 1
Z_724_7_0 0
Z_724_7_1 0
Z_724_7_2 0
Z_724_7_3 0
Z_724_7_4 1
Z_724_0_0 0
Z_724_0_1 1
Z_724_0_2 0
Z_724_0_3 0
Z_724_0_4 0
Z_724_9_0 0
Z_724_9_1 0
Z_724_9_2 0
Z_724_9_3 0
Z_724_9_4 1
Z_724_4_0 0
Z_724_4_1 0
Z_724_4_2 0
Z_724_4_3 0
Z_724_4_4 1
Z_724_3_0 0
Z_724_3_1 0
Z_724_3_2 0
Z_724_3_3 0
Z_724_3_4 1
Z_724_8_0 0
Z_724_8_1 0
Z_724_8_2 0
Z_724_8_3 0
Z_724_8_4 1
Z_724_1_0 0
Z_724_1_1 0
Z_724_1_2 0
Z_724_1_3 0
Z_724_1_4 1
Z_724_5_0 0
Z_724_5_1 0
Z_724_5_2 0
Z_724_5_3 0
Z_724_5_4 1
Z_724_12_0 0
Z_724_12_1 0
Z_724_12_2 0
Z_724_12_3 0
Z_724_12_4 1
Z_724_13_0 0
Z_724_13_1 0
Z_724_13_2 0
Z_724_13_3 0
Z_724_13_4 1
Z_724_10_0 0
Z_724_10_1 0
Z_724_10_2 0
Z_724_10_3 0
Z_724_10_4 1
Z_724_6_0 0
Z_724_6_1 0
Z_724_6_2 0
Z_724_6_3 0
Z_724_6_4 1
Z_550_0_0 0
Z_550_0_1 0
Z_550_0_2 0
Z_550_0_3 0
Z_550_0_4 1
Z_213_3_0 0
Z_213_3_1 0
Z_213_3_2 0
Z_213_3_3 0
Z_213_3_4 1
Z_213_2_0 0
Z_213_2_1 0
Z_213_2_2 0
Z_213_2_3 0
Z_213_2_4 1
Z_213_4_0 0
Z_213_4_1 0
Z_213_4_2 0
Z_213_4_3 0
Z_213_4_4 1
Z_213_1_0 0
Z_213_1_1 0
Z_213_1_2 0
Z_213_1_3 0
Z_213_1_4 1
Z_213_5_0 0
Z_213_5_1 0
Z_213_5_2 0
Z_213_5_3 0
Z_213_5_4 1
Z_213_0_0 0
Z_213_0_1 1
Z_213_0_2 0
Z_213_0_3 0
Z_213_0_4 0
Z_314_0_0 1
Z_314_0_1 0
Z_314_0_2 0
Z_314_0_3 0
Z_314_0_4 0
Z_314_1_0 0
Z_314_1_1 0
Z_314_1_2 1
Z_314_1_3 0
Z_314_1_4 0
Z_344_1_0 0
Z_344_1_1 0
Z_344_1_2 1
Z_344_1_3 0
Z_344_1_4 0
Z_344_0_0 1
Z_344_0_1 0
Z_344_0_2 0
Z_344_0_3 0
Z_344_0_4 0
Z_63_0_0 0
Z_63_0_1 0
Z_63_0_2 1
Z_63_0_3 0
Z_63_0_4 0
Z_143_0_0 1
Z_143_0_1 0
Z_143_0_2 0
Z_143_0_3 0
Z_143_0_4 0
Z_143_1_0 0
Z_143_1_1 0
Z_143_1_2 1
Z_143_1_3 0
Z_143_1_4 0
Z_568_0_0 0
Z_568_0_1 0
Z_568_0_2 1
Z_568_0_3 0
Z_568_0_4 0
Z_580_0_0 1
Z_580_0_1 0
Z_580_0_2 0
Z_580_0_3 0
Z_580_0_4 0
Z_49_0_0 0
Z_49_0_1 1
Z_49_0_2 0
Z_49_0_3 0
Z_49_0_4 0
Z_328_6_0 0
Z_328_6_1 0
Z_328_6_2 0
Z_328_6_3 0
Z_328_6_4 1
Z_328_4_0 0
Z_328_4_1 0
Z_328_4_2 0
Z_328_4_3 0
Z_328_4_4 1
Z_328_8_0 0
Z_328_8_1 0
Z_328_8_2 0
Z_328_8_3 0
Z_328_8_4 1
Z_328_9_0 0
Z_328_9_1 1
Z_328_9_2 0
Z_328_9_3 0
Z_328_9_4 0
Z_328_7_0 0
Z_328_7_1 0
Z_328_7_2 0
Z_328_7_3 0
Z_328_7_4 1
Z_328_1_0 0
Z_328_1_1 0
Z_328_1_2 0
Z_328_1_3 0
Z_328_1_4 1
Z_328_5_0 0
Z_328_5_1 0
Z_328_5_2 0
Z_328_5_3 0
Z_328_5_4 1
Z_328_2_0 0
Z_328_2_1 0
Z_328_2_2 0
Z_328_2_3 0
Z_328_2_4 1
Z_328_3_0 0
Z_328_3_1 0
Z_328_3_2 0
Z_328_3_3 0
Z_328_3_4 1
Z_525_0_0 0
Z_525_0_1 1
Z_525_0_2 0
Z_525_0_3 0
Z_525_0_4 0
Z_325_0_0 0
Z_325_0_1 0
Z_325_0_2 1
Z_325_0_3 0
Z_325_0_4 0
Z_16_0_0 1
Z_16_0_1 0
Z_16_0_2 0
Z_16_0_3 0
Z_16_0_4 0
Z_16_1_0 0
Z_16_1_1 0
Z_16_1_2 1
Z_16_1_3 0
Z_16_1_4 0
Z_400_0_0 0
Z_400_0_1 1
Z_400_0_2 0
Z_400_0_3 0
Z_400_0_4 0
Z_662_0_0 0
Z_662_0_1 1
Z_662_0_2 0
Z_662_0_3 0
Z_662_0_4 0
